sat
(:added-eqs               14
 :arith-branch            129
 :arith-conflicts         10
 :arith-cube-calls        32
 :arith-cube-success      1
 :arith-dio-calls         5
 :arith-fixed-eqs         15
 :arith-gcd-calls         130
 :arith-lower             98
 :arith-make-feasible     168
 :arith-max-columns       212
 :arith-max-rows          84
 :arith-patches           130
 :arith-upper             225
 :conflicts               10
 :decisions               140
 :final-checks            130
 :max-memory              59.81
 :memory                  21.27
 :mk-bool-var             323
 :mk-clause               10
 :num-allocs              5400092377.00
 :num-checks              2
 :propagations            3
 :rlimit-count            18950741
 :sat-backjumps           56061
 :sat-backtracks          132
 :sat-conflicts           56193
 :sat-decisions           191365
 :sat-del-clause          15301
 :sat-elim-bool-vars-res  2817
 :sat-elim-clauses        935
 :sat-elim-literals       525
 :sat-minimized-lits      712073
 :sat-mk-clause-2ary      37377
 :sat-mk-clause-3ary      9943
 :sat-mk-clause-nary      146690
 :sat-mk-var              34436
 :sat-probing-assigned    217
 :sat-propagations-2ary   9844964
 :sat-propagations-nary   8441555
 :sat-restarts            7731
 :sat-scc-elim-binary     2
 :sat-scc-elim-vars       1
 :sat-subs-resolution     72
 :sat-subs-resolution-dyn 17234
 :sat-subsumed            103
 :sat-units               238
 :time                    7.07
 :total-time              7.03)
